(set-option :print-success false)
(set-logic QF_UF)
(declare-sort x61 0)
(declare-sort x137 0)
(declare-fun x78 () x137)
(declare-fun x55 () x137)
(declare-fun x105 () x137)
(declare-fun x48 () x137)
(declare-fun x95 () x137)
(declare-fun x21 (x137 x137) x137)
(declare-fun x51 (x137 x137) x137)
(assert (and (= x95 (x51 x78 x55)) (and (= (x51 x55 x95) x48) (and (= x105 (x51 x55 x48)) (= (x51 x78 x78) x55)))))
(assert (let ((x88 (x51 x105 x105)) (x19 (x51 x55 x78)) (x37 (x51 x95 x95)) (x9 (x51 x55 x55)) (x41 (x51 x55 x105)) (x25 (x51 x95 x48)) (x34 (x51 x105 x48)) (x1 (x51 x78 x105)) (x144 (x51 x95 x78)) (x60 (x51 x48 x95)) (x7 (x51 x78 x48)) (x45 (x51 x55 x48)) (x94 (x51 x105 x95)) (x4 (x51 x95 x105)) (x92 (x51 x48 x48)) (x14 (x51 x105 x78)) (x108 (x51 x48 x55)) (x26 (x51 x105 x55)) (x128 (x51 x95 x55)) (x113 (x51 x48 x78)) (x133 (x51 x78 x95)) (x56 (x51 x78 x78)) (x124 (x51 x55 x95)) (x102 (x51 x48 x105)) (x70 (x51 x78 x55))) (or (and (and (and (not (= x48 (x51 x7 x7))) (and (not (= (x51 x1 x1) x105)) (not (= (x51 x70 x70) x55)))) (not (= (x51 x133 x133) x95))) (not (= x78 (x51 x56 x56)))) (or (or (and (and (and (and (not (= (x51 x108 x108) x55)) (not (= x105 (x51 x102 x102)))) (not (= (x51 x92 x92) x48))) (not (= (x51 x60 x60) x95))) (not (= (x51 x113 x113) x78))) (or (and (not (= (x51 x14 x14) x78)) (and (and (not (= (x51 x34 x34) x48)) (and (not (= x105 (x51 x88 x88))) (not (= (x51 x26 x26) x55)))) (not (= x95 (x51 x94 x94))))) (and (and (not (= x95 (x51 x124 x124))) (and (and (not (= (x51 x9 x9) x55)) (not (= (x51 x41 x41) x105))) (not (= (x51 x45 x45) x48)))) (not (= x78 (x51 x19 x19)))))) (and (and (and (not (= x48 (x51 x25 x25))) (and (not (= (x51 x4 x4) x105)) (not (= (x51 x128 x128) x55)))) (not (= (x51 x37 x37) x95))) (not (= x78 (x51 x144 x144))))))))
(assert (and (or (not (= (x51 x78 (x51 x78 x78)) x78)) (or (or (or (not (= x105 (x51 x78 (x51 x78 x105)))) (not (= (x51 x78 (x51 x78 x55)) x55))) (not (= (x51 x78 (x51 x78 x48)) x48))) (not (= (x51 x78 (x51 x78 x95)) x95)))) (and (and (and (or (not (= (x51 x55 (x51 x55 x78)) x78)) (or (or (not (= (x51 x55 (x51 x55 x48)) x48)) (or (not (= x55 (x51 x55 (x51 x55 x55)))) (not (= (x51 x55 (x51 x55 x105)) x105)))) (not (= x95 (x51 x55 (x51 x55 x95)))))) (or (not (= x78 (x51 x105 (x51 x105 x78)))) (or (or (or (not (= (x51 x105 (x51 x105 x105)) x105)) (not (= x55 (x51 x105 (x51 x105 x55))))) (not (= x48 (x51 x105 (x51 x105 x48))))) (not (= x95 (x51 x105 (x51 x105 x95))))))) (or (or (not (= (x51 x48 (x51 x48 x95)) x95)) (or (not (= x48 (x51 x48 (x51 x48 x48)))) (or (not (= (x51 x48 (x51 x48 x55)) x55)) (not (= (x51 x48 (x51 x48 x105)) x105))))) (not (= x78 (x51 x48 (x51 x48 x78)))))) (or (not (= x78 (x51 x95 (x51 x95 x78)))) (or (or (not (= x48 (x51 x95 (x51 x95 x48)))) (or (not (= x55 (x51 x95 (x51 x95 x55)))) (not (= (x51 x95 (x51 x95 x105)) x105)))) (not (= x95 (x51 x95 (x51 x95 x95)))))))))
(assert (let ((x14 (x51 x78 x105)) (x4 (x51 x105 x95)) (x94 (x51 x95 x105)) (x7 (x51 x48 x78)) (x41 (x51 x105 x55)) (x128 (x51 x55 x95)) (x37 (x51 x95 x95)) (x133 (x51 x95 x78)) (x9 (x51 x55 x55)) (x102 (x51 x105 x48)) (x113 (x51 x78 x48)) (x34 (x51 x48 x105)) (x1 (x51 x105 x78)) (x124 (x51 x95 x55)) (x60 (x51 x95 x48)) (x56 (x51 x78 x78)) (x45 (x51 x48 x55)) (x26 (x51 x55 x105)) (x25 (x51 x48 x95)) (x108 (x51 x55 x48)) (x88 (x51 x105 x105)) (x70 (x51 x55 x78)) (x92 (x51 x48 x48)) (x19 (x51 x78 x55)) (x144 (x51 x78 x95))) (and (and (and (and (and (and (and (and (not (= x34 x94)) (and (and (and (and (not (= x26 x14)) (and (not (= x26 x94)) (and (not (= x34 x26)) (not (= x26 x88))))) (not (= x88 x34))) (not (= x94 x88))) (not (= x88 x14)))) (not (= x34 x14))) (not (= x94 x14))) (and (and (not (= x45 x19)) (and (not (= x45 x124)) (and (not (= x41 x19)) (and (not (= x41 x124)) (and (and (not (= x19 x9)) (and (and (not (= x45 x9)) (not (= x41 x9))) (not (= x9 x124)))) (not (= x45 x41))))))) (not (= x124 x19)))) (and (not (= x113 x60)) (and (and (and (not (= x102 x113)) (and (and (and (not (= x108 x113)) (and (and (not (= x108 x92)) (not (= x108 x102))) (not (= x108 x60)))) (not (= x92 x102))) (not (= x60 x102)))) (not (= x60 x92))) (not (= x113 x92))))) (and (not (= x37 x144)) (and (and (and (not (= x144 x4)) (and (not (= x37 x4)) (and (not (= x25 x4)) (and (and (and (not (= x4 x128)) (not (= x25 x128))) (not (= x128 x37))) (not (= x128 x144)))))) (not (= x37 x25))) (not (= x25 x144))))) (and (and (not (= x7 x56)) (and (not (= x133 x7)) (and (and (and (not (= x1 x7)) (and (not (= x70 x56)) (and (not (= x133 x70)) (and (not (= x7 x70)) (not (= x1 x70)))))) (not (= x1 x133))) (not (= x56 x1))))) (not (= x56 x133)))) (and (and (and (and (not (= x7 x25)) (and (and (not (= x92 x25)) (and (not (= x34 x7)) (and (not (= x34 x25)) (and (not (= x34 x92)) (and (not (= x45 x7)) (and (and (not (= x45 x92)) (not (= x34 x45))) (not (= x45 x25)))))))) (not (= x7 x92)))) (and (and (not (= x70 x128)) (and (not (= x108 x70)) (and (not (= x128 x108)) (and (not (= x26 x70)) (and (and (not (= x26 x108)) (and (and (and (not (= x108 x9)) (not (= x9 x26))) (not (= x9 x128))) (not (= x9 x70)))) (not (= x128 x26))))))) (and (not (= x4 x1)) (and (and (not (= x102 x4)) (and (not (= x1 x88)) (and (and (and (not (= x41 x1)) (and (and (not (= x102 x41)) (not (= x41 x88))) (not (= x4 x41)))) (not (= x102 x88))) (not (= x4 x88))))) (not (= x102 x1)))))) (and (and (and (and (and (not (= x94 x37)) (and (and (not (= x133 x124)) (and (not (= x124 x37)) (and (not (= x94 x124)) (not (= x60 x124))))) (not (= x60 x94)))) (not (= x94 x133))) (not (= x37 x60))) (not (= x133 x60))) (not (= x37 x133)))) (and (not (= x144 x56)) (and (not (= x113 x56)) (and (not (= x144 x113)) (and (not (= x56 x14)) (and (and (not (= x14 x113)) (and (not (= x56 x19)) (and (and (not (= x19 x113)) (not (= x19 x14))) (not (= x144 x19))))) (not (= x144 x14)))))))))))
(assert (or (or (or (and (not (= x48 (x51 x78 (x51 x48 x78)))) (and (not (= x48 (x51 x95 (x51 x48 x95)))) (and (and (not (= x48 (x51 x105 (x51 x48 x105)))) (not (= x48 (x51 x55 (x51 x48 x55))))) (not (= x48 (x51 x48 (x51 x48 x48))))))) (or (and (and (and (not (= (x51 x48 (x51 x105 x48)) x105)) (and (not (= x105 (x51 x105 (x51 x105 x105)))) (not (= x105 (x51 x55 (x51 x105 x55)))))) (not (= (x51 x95 (x51 x105 x95)) x105))) (not (= (x51 x78 (x51 x105 x78)) x105))) (and (and (and (and (not (= x55 (x51 x105 (x51 x55 x105)))) (not (= x55 (x51 x55 (x51 x55 x55))))) (not (= x55 (x51 x48 (x51 x55 x48))))) (not (= x55 (x51 x95 (x51 x55 x95))))) (not (= x55 (x51 x78 (x51 x55 x78))))))) (and (not (= (x51 x78 (x51 x95 x78)) x95)) (and (not (= x95 (x51 x95 (x51 x95 x95)))) (and (and (not (= (x51 x105 (x51 x95 x105)) x95)) (not (= x95 (x51 x55 (x51 x95 x55))))) (not (= (x51 x48 (x51 x95 x48)) x95)))))) (and (and (and (not (= (x51 x48 (x51 x78 x48)) x78)) (and (not (= x78 (x51 x105 (x51 x78 x105)))) (not (= (x51 x55 (x51 x78 x55)) x78)))) (not (= (x51 x95 (x51 x78 x95)) x78))) (not (= (x51 x78 (x51 x78 x78)) x78)))))
(assert (and (not (= x95 x78)) (and (and (and (not (= x105 x78)) (and (not (= x95 x105)) (and (not (= x105 x48)) (and (and (not (= x55 x95)) (and (not (= x55 x48)) (not (= x55 x105)))) (not (= x55 x78)))))) (not (= x48 x95))) (not (= x48 x78)))))
(assert (let ((x102 (x51 x48 x105)) (x25 (x51 x95 x48)) (x34 (x51 x105 x48)) (x4 (x51 x95 x105)) (x144 (x51 x95 x78)) (x19 (x51 x55 x78)) (x14 (x51 x105 x78)) (x92 (x51 x48 x48)) (x70 (x51 x78 x55)) (x108 (x51 x48 x55)) (x124 (x51 x55 x95)) (x60 (x51 x48 x95)) (x37 (x51 x95 x95)) (x1 (x51 x78 x105)) (x128 (x51 x95 x55)) (x133 (x51 x78 x95)) (x113 (x51 x48 x78)) (x9 (x51 x55 x55)) (x26 (x51 x105 x55)) (x94 (x51 x105 x95)) (x7 (x51 x78 x48)) (x45 (x51 x55 x48)) (x88 (x51 x105 x105)) (x41 (x51 x55 x105)) (x56 (x51 x78 x78))) (and (and (and (and (and (and (and (and (or (or (or (= x9 x48) (or (= x9 x105) (= x9 x55))) (= x95 x9)) (= x9 x78)) (or (= x41 x78) (or (= x95 x41) (or (= x41 x48) (or (= x41 x55) (= x105 x41)))))) (or (or (or (= x45 x48) (or (= x45 x105) (= x55 x45))) (= x95 x45)) (= x78 x45))) (or (or (or (= x48 x124) (or (= x124 x55) (= x124 x105))) (= x124 x95)) (= x124 x78))) (or (= x19 x78) (or (or (= x48 x19) (or (= x105 x19) (= x55 x19))) (= x19 x95)))) (and (or (= x14 x78) (or (= x95 x14) (or (or (= x14 x105) (= x14 x55)) (= x48 x14)))) (and (and (or (or (= x95 x34) (or (= x48 x34) (or (= x34 x105) (= x55 x34)))) (= x78 x34)) (and (or (= x78 x88) (or (= x95 x88) (or (= x48 x88) (or (= x88 x55) (= x88 x105))))) (or (= x26 x78) (or (= x26 x95) (or (= x26 x48) (or (= x26 x55) (= x105 x26))))))) (or (or (= x95 x94) (or (= x48 x94) (or (= x105 x94) (= x55 x94)))) (= x94 x78))))) (and (or (or (or (= x48 x113) (or (= x55 x113) (= x113 x105))) (= x113 x95)) (= x78 x113)) (and (or (= x60 x78) (or (= x95 x60) (or (= x60 x48) (or (= x105 x60) (= x55 x60))))) (and (or (or (= x95 x92) (or (or (= x92 x105) (= x55 x92)) (= x92 x48))) (= x92 x78)) (and (or (or (or (or (= x102 x105) (= x102 x55)) (= x48 x102)) (= x102 x95)) (= x78 x102)) (or (= x78 x108) (or (or (= x108 x48) (or (= x105 x108) (= x108 x55))) (= x95 x108)))))))) (and (and (and (and (or (or (= x95 x4) (or (= x48 x4) (or (= x4 x55) (= x105 x4)))) (= x4 x78)) (or (or (= x95 x128) (or (= x128 x48) (or (= x128 x55) (= x128 x105)))) (= x78 x128))) (or (= x25 x78) (or (= x25 x95) (or (or (= x25 x105) (= x55 x25)) (= x48 x25))))) (or (= x37 x78) (or (or (or (= x37 x105) (= x37 x55)) (= x48 x37)) (= x37 x95)))) (or (= x144 x78) (or (or (= x48 x144) (or (= x144 x55) (= x105 x144))) (= x95 x144))))) (and (and (and (or (or (or (= x48 x7) (or (= x105 x7) (= x55 x7))) (= x95 x7)) (= x78 x7)) (and (or (or (= x95 x70) (or (= x70 x48) (or (= x70 x55) (= x70 x105)))) (= x78 x70)) (or (or (= x95 x1) (or (or (= x1 x55) (= x105 x1)) (= x48 x1))) (= x78 x1)))) (or (= x133 x78) (or (= x95 x133) (or (= x133 x48) (or (= x105 x133) (= x55 x133)))))) (or (= x56 x78) (or (or (or (= x105 x56) (= x56 x55)) (= x56 x48)) (= x95 x56)))))))
(assert (not (and (and (and (= (x51 x78 x48) x48) (and (= (x51 x78 x105) x78) (and (and (= x105 (x51 x95 x78)) (and (and (and (and (= (x51 x95 x55) x55) (and (= x48 (x51 x48 x78)) (and (and (and (and (= x105 (x51 x48 x55)) (and (and (= x55 (x51 x105 x95)) (and (and (and (and (= x95 (x51 x55 x78)) (and (= (x51 x55 x95) x48) (and (= x105 (x51 x55 x48)) (and (= (x51 x55 x55) x78) (= x55 (x51 x55 x105)))))) (= (x51 x105 x55) x48)) (= x105 (x51 x105 x105))) (= x95 (x51 x105 x48)))) (= x78 (x51 x105 x78)))) (= (x51 x48 x105) x95)) (= (x51 x48 x48) x55)) (= x78 (x51 x48 x95))))) (= (x51 x95 x105) x48)) (= x78 (x51 x95 x48))) (= x95 (x51 x95 x95)))) (= (x51 x78 x55) x95)))) (= x105 (x51 x78 x95))) (= (x51 x78 x78) x55))))
(assert (let ((x14 (= (x51 x78 x78) x78)) (x94 (= (x51 x95 x95) x95)) (x45 (= x105 (x51 x105 x105))) (x34 (= (x51 x48 x48) x48)) (x9 (= x55 (x51 x55 x55)))) (let ((x41 (not x9)) (x124 (not x45)) (x26 (not x94)) (x19 (not x34)) (x88 (not x14))) (or (or (or (and (= x95 (x51 x95 x78)) x88) (or (or (and (= (x51 x95 x48) x95) x19) (or (and (= (x51 x95 x105) x95) x124) (and (= (x51 x95 x55) x95) x41))) (and x26 x94))) (or (or (or (or (and x26 (= x55 (x51 x55 x95))) (or (and x19 (= (x51 x55 x48) x55)) (or (and x9 x41) (and x124 (= x55 (x51 x55 x105)))))) (and x88 (= (x51 x55 x78) x55))) (or (or (or (and (= x105 (x51 x105 x48)) x19) (or (and x124 x45) (and x41 (= x105 (x51 x105 x55))))) (and (= (x51 x105 x95) x105) x26)) (and x88 (= x105 (x51 x105 x78))))) (or (or (and x26 (= (x51 x48 x95) x48)) (or (and x34 x19) (or (and x124 (= (x51 x48 x105) x48)) (and x41 (= x48 (x51 x48 x55)))))) (and (= x48 (x51 x48 x78)) x88)))) (or (or (and (= (x51 x78 x95) x78) x26) (or (and x19 (= (x51 x78 x48) x78)) (or (and x41 (= (x51 x78 x55) x78)) (and (= x78 (x51 x78 x105)) x124)))) (and x14 x88))))))
(assert (let ((x124 (x51 x95 x95)) (x19 (x51 x78 x78)) (x45 (x51 x48 x48)) (x41 (x51 x105 x105)) (x9 (x51 x55 x55))) (or (and (not (= x78 x19)) (and (not (= x124 x78)) (and (and (not (= x9 x78)) (not (= x78 x41))) (not (= x78 x45))))) (or (or (and (not (= x48 x19)) (and (and (and (not (= x48 x9)) (not (= x41 x48))) (not (= x48 x45))) (not (= x48 x124)))) (or (and (not (= x19 x105)) (and (and (not (= x45 x105)) (and (not (= x41 x105)) (not (= x105 x9)))) (not (= x124 x105)))) (and (and (and (not (= x55 x45)) (and (not (= x55 x9)) (not (= x41 x55)))) (not (= x124 x55))) (not (= x55 x19))))) (and (not (= x95 x19)) (and (not (= x124 x95)) (and (not (= x95 x45)) (and (not (= x9 x95)) (not (= x95 x41))))))))))
(assert (let ((x41 (x51 x105 x105)) (x45 (x51 x48 x48)) (x19 (x51 x78 x78)) (x124 (x51 x95 x95)) (x9 (x51 x55 x55))) (let ((x92 (= x45 x48)) (x26 (= x9 x55)) (x34 (= x105 x41)) (x113 (= x78 x19)) (x60 (= x95 x124))) (let ((x14 (or (= x19 x48) (or (or x92 (or (= x41 x48) (= x48 x9))) (= x124 x48)))) (x108 (or (= x19 x95) (or (or (= x95 x45) (or (= x9 x95) (= x95 x41))) x60))) (x88 (or (= x19 x55) (or (= x124 x55) (or (or x26 (= x55 x41)) (= x55 x45))))) (x94 (or (or (or (or (= x105 x9) x34) (= x45 x105)) (= x124 x105)) (= x105 x19))) (x102 (or (or (= x124 x78) (or (= x45 x78) (or (= x9 x78) (= x78 x41)))) x113))) (and (and (and (and (and (and (and (or (not (= (x51 x95 x55) x95)) x88) (or (not (= (x51 x95 x105) x95)) x94)) (or (not (= (x51 x95 x48) x95)) x14)) (or (not x60) x108)) (or x102 (not (= (x51 x95 x78) x95)))) (and (and (and (or (not (= x105 (x51 x105 x78))) x102) (and (and (and (or x88 (not (= x105 (x51 x105 x55)))) (or (not x34) x94)) (or (not (= x105 (x51 x105 x48))) x14)) (or x108 (not (= x105 (x51 x105 x95)))))) (and (and (or (not (= x55 (x51 x55 x95))) x108) (and (or x14 (not (= x55 (x51 x55 x48)))) (and (or (not (= x55 (x51 x55 x105))) x94) (or (not x26) x88)))) (or x102 (not (= (x51 x55 x78) x55))))) (and (or x102 (not (= (x51 x48 x78) x48))) (and (and (and (or (not (= (x51 x48 x55) x48)) x88) (or x94 (not (= (x51 x48 x105) x48)))) (or x14 (not x92))) (or x108 (not (= (x51 x48 x95) x48))))))) (and (or x102 (not x113)) (and (and (or (not (= (x51 x78 x48) x78)) x14) (and (or (not (= x78 (x51 x78 x55))) x88) (or x94 (not (= x78 (x51 x78 x105)))))) (or x108 (not (= x78 (x51 x78 x95))))))) (or (or (or (or (and (and (and (not (= (x51 x48 x41) x48)) (and (not (= (x51 x55 x41) x55)) (not (= (x51 x105 x41) x105)))) (not (= (x51 x95 x41) x95))) (not (= x78 (x51 x78 x41)))) (and (and (not (= (x51 x95 x9) x95)) (and (not (= (x51 x48 x9) x48)) (and (not (= (x51 x105 x9) x105)) (not (= x55 (x51 x55 x9)))))) (not (= x78 (x51 x78 x9))))) (and (and (and (not (= x48 (x51 x48 x45))) (and (not (= (x51 x55 x45) x55)) (not (= x105 (x51 x105 x45))))) (not (= x95 (x51 x95 x45)))) (not (= (x51 x78 x45) x78)))) (and (and (and (not (= x48 (x51 x48 x124))) (and (not (= (x51 x55 x124) x55)) (not (= (x51 x105 x124) x105)))) (not (= (x51 x95 x124) x95))) (not (= (x51 x78 x124) x78)))) (and (and (and (and (not (= x105 (x51 x105 x19))) (not (= x55 (x51 x55 x19)))) (not (= (x51 x48 x19) x48))) (not (= x95 (x51 x95 x19)))) (not (= (x51 x78 x19) x78)))))))))
(assert (let ((x68 (x51 x78 x55)) (x49 (x51 x105 x55)) (x149 (x51 x78 x48)) (x54 (x51 x48 x78)) (x97 (x51 x48 x48)) (x36 (x51 x55 x95)) (x127 (x51 x48 x105)) (x140 (x51 x55 x55)) (x62 (x51 x55 x48)) (x23 (x51 x105 x95)) (x136 (x51 x95 x95)) (x32 (x51 x105 x78)) (x143 (x51 x48 x55)) (x53 (x51 x105 x48)) (x47 (x51 x55 x78)) (x147 (x51 x55 x105)) (x134 (x51 x95 x55)) (x12 (x51 x78 x95)) (x156 (x51 x48 x95)) (x112 (x51 x95 x105)) (x123 (x51 x105 x105)) (x74 (x51 x78 x105)) (x118 (x51 x95 x78)) (x81 (x51 x95 x48)) (x91 (x51 x78 x78))) (let ((x76 (= x123 x48)) (x86 (= x140 x78)) (x37 (= x74 x55)) (x39 (= x48 x127)) (x11 (= x81 x78)) (x44 (= x112 x78)) (x75 (= x147 x78)) (x71 (= x78 x68)) (x96 (= x48 x47)) (x38 (= x62 x48)) (x35 (= x147 x48)) (x87 (= x105 x91)) (x103 (= x97 x105)) (x10 (= x123 x105)) (x110 (= x136 x48)) (x141 (= x95 x97)) (x88 (= x127 x55)) (x85 (= x53 x78)) (x69 (= x134 x95)) (x157 (= x78 x62)) (x2 (= x32 x78)) (x122 (= x105 x112)) (x65 (= x95 x54)) (x98 (= x112 x48)) (x100 (= x78 x91)) (x152 (= x95 x156)) (x99 (= x136 x78)) (x94 (= x55 x97)) (x151 (= x74 x48)) (x15 (= x74 x78)) (x5 (= x12 x95)) (x154 (= x48 x68)) (x14 (= x134 x55)) (x17 (= x49 x48)) (x67 (= x105 x68)) (x155 (= x156 x105)) (x31 (= x95 x32)) (x7 (= x12 x55)) (x22 (= x95 x68)) (x43 (= x149 x48)) (x126 (= x78 x49)) (x121 (= x78 x97)) (x139 (= x48 x81)) (x138 (= x48 x91)) (x58 (= x134 x78)) (x41 (= x49 x55)) (x117 (= x105 x36)) (x24 (= x118 x78)) (x57 (= x47 x78)) (x115 (= x23 x105)) (x13 (= x48 x97)) (x72 (= x53 x48)) (x101 (= x105 x143)) (x66 (= x36 x95)) (x3 (= x105 x54)) (x25 (= x47 x55)) (x59 (= x105 x81)) (x27 (= x48 x118)) (x28 (= x95 x62)) (x131 (= x48 x140)) (x77 (= x48 x32)) (x20 (= x105 x127)) (x73 (= x23 x95)) (x19 (= x55 x143)) (x26 (= x55 x62)) (x102 (= x112 x55)) (x33 (= x95 x53)) (x6 (= x12 x78)) (x4 (= x55 x68)) (x52 (= x95 x136)) (x80 (= x118 x105)) (x63 (= x78 x149)) (x142 (= x36 x78)) (x92 (= x23 x55)) (x132 (= x105 x47)) (x125 (= x23 x48)) (x50 (= x62 x105)) (x119 (= x95 x149)) (x158 (= x156 x48)) (x159 (= x149 x105)) (x45 (= x147 x55)) (x146 (= x53 x105)) (x1 (= x55 x54)) (x144 (= x32 x55)) (x114 (= x105 x32)) (x124 (= x123 x55)) (x16 (= x54 x48)) (x56 (= x55 x91)) (x9 (= x140 x55)) (x104 (= x143 x78)) (x111 (= x95 x147)) (x64 (= x123 x95)) (x109 (= x95 x47)) (x93 (= x118 x95)) (x8 (= x95 x49)) (x34 (= x55 x53)) (x153 (= x105 x49)) (x79 (= x12 x105)) (x150 (= x78 x23)) (x18 (= x143 x48)) (x46 (= x140 x105)) (x89 (= x78 x123)) (x133 (= x55 x118)) (x145 (= x78 x54)) (x113 (= x55 x156)) (x107 (= x136 x105)) (x70 (= x55 x149)) (x83 (= x95 x81)) (x90 (= x105 x147)) (x148 (= x134 x48)) (x40 (= x78 x156)) (x82 (= x95 x91)) (x129 (= x140 x95)) (x42 (= x95 x127)) (x30 (= x127 x78)) (x108 (= x36 x55)) (x128 (= x55 x136)) (x130 (= x48 x36)) (x60 (= x81 x55)) (x116 (= x105 x74)) (x120 (= x143 x95)) (x135 (= x105 x134)) (x106 (= x48 x12)) (x84 (= x112 x95)) (x29 (= x74 x95))) (and (and (or (or (and x82 x82) (or (or (or (and x29 x31) (and x22 x109)) (and x119 x65)) (and x5 x93))) (or (or (or (or (or (or (and x33 x42) (or (and x111 x8) (and x64 x64))) (and x84 x73)) (and x31 x29)) (or (or (or (or (and x129 x129) (and x8 x111)) (and x28 x120)) (and x69 x66)) (and x22 x109))) (or (or (or (and x141 x141) (or (and x28 x120) (and x33 x42))) (and x152 x83)) (and x119 x65))) (or (and x5 x93) (or (and x52 x52) (or (or (and x73 x84) (and x69 x66)) (and x83 x152)))))) (and (and (or (or (or (or (or (or (and x135 x117) (and x122 x115)) (and x59 x155)) (and x107 x107)) (and x79 x80)) (or (or (or (or (or (and x146 x20) (or (and x10 x10) (and x90 x153))) (and x122 x115)) (and x114 x116)) (or (or (or (or (and x153 x90) (and x46 x46)) (and x101 x50)) (and x117 x135)) (and x67 x132))) (or (or (and x59 x155) (or (or (and x101 x50) (and x146 x20)) (and x103 x103))) (and x3 x159)))) (or (and x87 x87) (or (and x79 x80) (or (or (and x116 x114) (and x67 x132)) (and x3 x159))))) (or (or (and x56 x56) (or (and x7 x133) (or (or (and x25 x4) (and x144 x37)) (and x1 x70)))) (or (or (and x7 x133) (or (and x128 x128) (or (and x60 x113) (or (and x102 x92) (and x108 x14))))) (or (or (or (and x25 x4) (or (or (and x26 x19) (or (and x41 x45) (and x9 x9))) (and x14 x108))) (or (and x144 x37) (or (and x92 x102) (or (or (and x41 x45) (and x124 x124)) (and x88 x34))))) (or (or (or (and x94 x94) (or (and x26 x19) (and x88 x34))) (and x113 x60)) (and x1 x70)))))) (or (or (or (and x106 x27) (or (and x110 x110) (or (or (and x98 x125) (and x130 x148)) (and x139 x158)))) (or (or (or (or (or (or (and x35 x17) (and x131 x131)) (and x38 x18)) (and x130 x148)) (and x154 x96)) (or (and x77 x151) (or (and x125 x98) (or (and x72 x39) (or (and x76 x76) (and x35 x17)))))) (or (and x16 x43) (or (or (or (and x72 x39) (and x18 x38)) (and x13 x13)) (and x158 x139))))) (or (and x138 x138) (or (or (or (and x96 x154) (and x151 x77)) (and x16 x43)) (and x106 x27)))))) (or (or (or (or (or (or (or (or (and x126 x75) (and x89 x89)) (and x30 x85)) (and x150 x44)) (and x15 x2)) (or (and x57 x71) (or (and x58 x142) (or (or (and x126 x75) (and x86 x86)) (and x157 x104))))) (or (and x63 x145) (or (and x40 x11) (or (or (and x157 x104) (and x30 x85)) (and x121 x121))))) (or (or (or (and x40 x11) (or (and x142 x58) (and x44 x150))) (and x99 x99)) (and x6 x24))) (or (and x100 x100) (or (and x6 x24) (or (or (and x71 x57) (and x2 x15)) (and x145 x63)))))))))
(assert (or (or (and (and (not (= x95 (x51 (x51 x95 x95) x95))) (and (not (= (x51 (x51 x95 x48) x95) x48)) (and (not (= x105 (x51 (x51 x95 x105) x95))) (not (= x55 (x51 (x51 x95 x55) x95)))))) (not (= (x51 (x51 x95 x78) x95) x78))) (or (and (not (= x78 (x51 (x51 x48 x78) x48))) (and (not (= (x51 (x51 x48 x95) x48) x95)) (and (not (= (x51 (x51 x48 x48) x48) x48)) (and (not (= x105 (x51 (x51 x48 x105) x48))) (not (= (x51 (x51 x48 x55) x48) x55)))))) (or (and (and (and (not (= (x51 (x51 x105 x48) x105) x48)) (and (not (= x55 (x51 (x51 x105 x55) x105))) (not (= (x51 (x51 x105 x105) x105) x105)))) (not (= (x51 (x51 x105 x95) x105) x95))) (not (= (x51 (x51 x105 x78) x105) x78))) (and (not (= x78 (x51 (x51 x55 x78) x55))) (and (and (and (not (= (x51 (x51 x55 x105) x55) x105)) (not (= (x51 (x51 x55 x55) x55) x55))) (not (= x48 (x51 (x51 x55 x48) x55)))) (not (= x95 (x51 (x51 x55 x95) x55)))))))) (and (and (not (= (x51 (x51 x78 x95) x78) x95)) (and (not (= (x51 (x51 x78 x48) x78) x48)) (and (not (= (x51 (x51 x78 x105) x78) x105)) (not (= x55 (x51 (x51 x78 x55) x78)))))) (not (= (x51 (x51 x78 x78) x78) x78)))))
(assert (or (or (or (= (x51 x48 x48) x48) (or (= x105 (x51 x105 x105)) (= x55 (x51 x55 x55)))) (= x95 (x51 x95 x95))) (= (x51 x78 x78) x78)))
(assert (or (or (and (and (and (= x48 (x51 (x51 x48 x95) x95)) (and (= (x51 (x51 x105 x95) x95) x105) (= x55 (x51 (x51 x55 x95) x95)))) (= x95 (x51 (x51 x95 x95) x95))) (= x78 (x51 (x51 x78 x95) x95))) (or (and (= (x51 (x51 x78 x48) x48) x78) (and (and (= x48 (x51 (x51 x48 x48) x48)) (and (= x55 (x51 (x51 x55 x48) x48)) (= (x51 (x51 x105 x48) x48) x105))) (= (x51 (x51 x95 x48) x48) x95))) (or (and (= x78 (x51 (x51 x78 x55) x55)) (and (and (and (= x55 (x51 (x51 x55 x55) x55)) (= (x51 (x51 x105 x55) x55) x105)) (= x48 (x51 (x51 x48 x55) x55))) (= x95 (x51 (x51 x95 x55) x55)))) (and (and (= x95 (x51 (x51 x95 x105) x105)) (and (= (x51 (x51 x48 x105) x105) x48) (and (= x55 (x51 (x51 x55 x105) x105)) (= (x51 (x51 x105 x105) x105) x105)))) (= x78 (x51 (x51 x78 x105) x105)))))) (and (and (and (and (= (x51 (x51 x105 x78) x78) x105) (= (x51 (x51 x55 x78) x78) x55)) (= (x51 (x51 x48 x78) x78) x48)) (= x95 (x51 (x51 x95 x78) x78))) (= (x51 (x51 x78 x78) x78) x78))))
(assert (let ((x128 (x51 x95 x95)) (x14 (x51 x95 x55)) (x19 (x51 x48 x55)) (x134 (x51 x55 x78)) (x46 (x51 x55 x105)) (x60 (x51 x95 x48)) (x34 (x51 x105 x48)) (x41 (x51 x105 x55)) (x94 (x51 x48 x48)) (x143 (x51 x55 x95)) (x49 (x51 x55 x48)) (x4 (x51 x78 x55)) (x113 (x51 x48 x95)) (x144 (x51 x105 x78)) (x88 (x51 x48 x105)) (x56 (x51 x78 x78)) (x1 (x51 x48 x78)) (x7 (x51 x78 x95)) (x140 (x51 x55 x55)) (x92 (x51 x105 x95)) (x124 (x51 x105 x105)) (x37 (x51 x78 x105)) (x102 (x51 x95 x105)) (x133 (x51 x95 x78)) (x70 (x51 x78 x48))) (let ((x74 (not (= x113 x48))) (x68 (not (= x105 x124))) (x101 (not (= x128 x95))) (x147 (not (= x41 x105))) (x123 (not (= x92 x105))) (x108 (not (= x143 x55))) (x127 (not (= x37 x78))) (x97 (not (= x78 x56))) (x26 (not (= x55 x49))) (x32 (not (= x78 x70))) (x25 (not (= x55 x134))) (x50 (not (= x78 x7))) (x20 (not (= x1 x48))) (x112 (not (= x95 x60))) (x90 (not (= x88 x48))) (x45 (not (= x55 x46))) (x9 (not (= x55 x140))) (x10 (not (= x95 x102))) (x36 (not (= x14 x95))) (x53 (not (= x105 x144))) (x23 (not (= x48 x94))) (x62 (not (= x48 x19))) (x153 (not (= x34 x105))) (x47 (not (= x4 x78))) (x146 (not (= x95 x133)))) (or (and (and (or x97 x97) (and (or x50 x146) (and (or x20 x32) (and (or x53 x127) (or x47 x25))))) (and (and (or x50 (not (= x78 x133))) (and (and (and (or x108 (not (= x78 x14))) (or (not (= x78 x102)) x123)) (or (not (= x60 x78)) x74)) (or (not (= x128 x78)) x101))) (and (and (or x32 (not (= x78 x1))) (and (and (and (or x153 (not (= x88 x78))) (or (not (= x78 x19)) x26)) (or x23 (not (= x94 x78)))) (or x112 (not (= x78 x113))))) (and (and (or x127 (not (= x144 x78))) (and (or (not (= x78 x92)) x10) (and (or x90 (not (= x34 x78))) (and (or x45 (not (= x78 x41))) (or (not (= x124 x78)) x68))))) (and (and (or x36 (not (= x78 x143))) (and (or x62 (not (= x78 x49))) (and (or x9 (not (= x140 x78))) (or (not (= x46 x78)) x147)))) (or (not (= x134 x78)) x47)))))) (or (and (and (and (or x146 x50) (and (or x101 x101) (and (or x112 x74) (and (or x108 x36) (or x123 x10))))) (and (and (and (or x47 (not (= x95 x134))) (and (or x36 (not (= x143 x95))) (and (and (or (not (= x95 x140)) x9) (or x147 (not (= x46 x95)))) (or x62 (not (= x95 x49)))))) (and (or (not (= x95 x144)) x127) (and (and (and (or x45 (not (= x41 x95))) (or (not (= x124 x95)) x68)) (or (not (= x34 x95)) x90)) (or (not (= x95 x92)) x10)))) (and (and (and (or x23 (not (= x94 x95))) (and (or x26 (not (= x19 x95))) (or x153 (not (= x88 x95))))) (or x112 (not (= x95 x113)))) (or x32 (not (= x95 x1)))))) (and (and (or x146 (not (= x7 x95))) (and (or (not (= x70 x95)) x20) (and (or (not (= x4 x95)) x25) (or (not (= x95 x37)) x53)))) (or (not (= x95 x56)) x97))) (or (and (and (and (or x50 (not (= x48 x133))) (and (and (or (not (= x48 x60)) x74) (and (or x123 (not (= x102 x48))) (or (not (= x48 x14)) x108))) (or x101 (not (= x128 x48))))) (and (and (and (and (or x23 x23) (and (or x26 x62) (or x90 x153))) (or x74 x112)) (or x32 x20)) (and (and (or x47 (not (= x134 x48))) (and (and (or (not (= x48 x49)) x62) (and (or x9 (not (= x140 x48))) (or x147 (not (= x48 x46))))) (or (not (= x48 x143)) x36))) (and (and (and (or (not (= x48 x34)) x90) (and (or x45 (not (= x41 x48))) (or (not (= x124 x48)) x68))) (or (not (= x92 x48)) x10)) (or x127 (not (= x48 x144))))))) (and (and (and (and (or (not (= x37 x48)) x53) (or (not (= x48 x4)) x25)) (or x20 (not (= x48 x70)))) (or x146 (not (= x48 x7)))) (or x97 (not (= x56 x48))))) (or (and (and (and (or x146 (not (= x55 x7))) (and (or (not (= x55 x70)) x20) (and (or (not (= x4 x55)) x25) (or x53 (not (= x55 x37)))))) (or (not (= x56 x55)) x97)) (and (and (and (and (and (or x108 (not (= x14 x55))) (or x123 (not (= x55 x102)))) (or (not (= x55 x60)) x74)) (or x101 (not (= x128 x55)))) (or (not (= x55 x133)) x50)) (and (and (and (or x47 x25) (and (and (and (or x147 x45) (or x9 x9)) (or x62 x26)) (or x36 x108))) (and (and (and (and (or x45 (not (= x41 x55))) (or (not (= x55 x124)) x68)) (or x90 (not (= x55 x34)))) (or (not (= x55 x92)) x10)) (or (not (= x144 x55)) x127))) (and (or (not (= x55 x1)) x32) (and (or x112 (not (= x113 x55))) (and (or x23 (not (= x55 x94))) (and (or x153 (not (= x55 x88))) (or x26 (not (= x55 x19)))))))))) (and (and (and (or (not (= x133 x105)) x50) (and (or (not (= x105 x128)) x101) (and (or x74 (not (= x105 x60))) (and (or (not (= x14 x105)) x108) (or (not (= x102 x105)) x123))))) (and (and (and (and (and (or (not (= x105 x49)) x62) (and (or (not (= x105 x46)) x147) (or (not (= x105 x140)) x9))) (or (not (= x143 x105)) x36)) (or (not (= x105 x134)) x47)) (and (or x53 x127) (and (and (or x90 x153) (and (or x45 x147) (or x68 x68))) (or x10 x123)))) (and (or x32 (not (= x1 x105))) (and (and (and (or x153 (not (= x88 x105))) (or (not (= x105 x19)) x26)) (or (not (= x105 x94)) x23)) (or x112 (not (= x105 x113))))))) (and (and (and (or x20 (not (= x105 x70))) (and (or x25 (not (= x105 x4))) (or x53 (not (= x37 x105))))) (or (not (= x105 x7)) x146)) (or x97 (not (= x56 x105))))))))))))
(assert (or (or (or (and (not (= (x51 (x51 x78 x48) x78) x48)) (and (not (= x48 (x51 (x51 x95 x48) x95))) (and (and (not (= (x51 (x51 x55 x48) x55) x48)) (not (= (x51 (x51 x105 x48) x105) x48))) (not (= x48 (x51 (x51 x48 x48) x48)))))) (or (and (not (= x55 (x51 (x51 x78 x55) x78))) (and (and (not (= x55 (x51 (x51 x48 x55) x48))) (and (not (= x55 (x51 (x51 x105 x55) x105))) (not (= x55 (x51 (x51 x55 x55) x55))))) (not (= (x51 (x51 x95 x55) x95) x55)))) (and (not (= (x51 (x51 x78 x105) x78) x105)) (and (and (and (not (= (x51 (x51 x105 x105) x105) x105)) (not (= (x51 (x51 x55 x105) x55) x105))) (not (= x105 (x51 (x51 x48 x105) x48)))) (not (= x105 (x51 (x51 x95 x105) x95))))))) (and (and (not (= x95 (x51 (x51 x95 x95) x95))) (and (not (= (x51 (x51 x48 x95) x48) x95)) (and (not (= x95 (x51 (x51 x105 x95) x105))) (not (= (x51 (x51 x55 x95) x55) x95))))) (not (= x95 (x51 (x51 x78 x95) x78))))) (and (and (not (= (x51 (x51 x95 x78) x95) x78)) (and (not (= (x51 (x51 x48 x78) x48) x78)) (and (not (= (x51 (x51 x105 x78) x105) x78)) (not (= (x51 (x51 x55 x78) x55) x78))))) (not (= (x51 (x51 x78 x78) x78) x78)))))
(assert (let ((x94 (x51 x48 x48)) (x102 (x51 x95 x105)) (x128 (x51 x95 x95)) (x45 (x51 x55 x105)) (x92 (x51 x105 x95)) (x113 (x51 x48 x95)) (x26 (x51 x55 x48)) (x4 (x51 x78 x55)) (x133 (x51 x95 x78)) (x41 (x51 x105 x55)) (x14 (x51 x95 x55)) (x124 (x51 x105 x105)) (x56 (x51 x78 x78)) (x9 (x51 x55 x55)) (x108 (x51 x55 x95)) (x37 (x51 x78 x105)) (x144 (x51 x105 x78)) (x70 (x51 x78 x48)) (x25 (x51 x55 x78)) (x60 (x51 x95 x48)) (x19 (x51 x48 x55)) (x7 (x51 x78 x95)) (x1 (x51 x48 x78)) (x88 (x51 x48 x105)) (x34 (x51 x105 x48))) (or (or (or (or (and (and (and (= x34 x88) (and (= x124 x124) (= x45 x41))) (= x92 x102)) (= x37 x144)) (and (and (and (and (= x41 x45) (= x9 x9)) (= x19 x26)) (= x108 x14)) (= x25 x4))) (and (and (= x60 x113) (and (= x94 x94) (and (= x19 x26) (= x34 x88)))) (= x1 x70))) (and (and (and (and (= x108 x14) (= x102 x92)) (= x113 x60)) (= x128 x128)) (= x7 x133))) (and (and (= x133 x7) (and (= x70 x1) (and (= x4 x25) (= x144 x37)))) (= x56 x56)))))
(assert (or (or (or (or (and (and (and (not (= x48 (x51 x55 (x51 x55 x48)))) (and (not (= (x51 x55 (x51 x55 x55)) x55)) (not (= (x51 x55 (x51 x55 x105)) x105)))) (not (= (x51 x55 (x51 x55 x95)) x95))) (not (= x78 (x51 x55 (x51 x55 x78))))) (and (and (not (= x95 (x51 x105 (x51 x105 x95)))) (and (and (not (= x55 (x51 x105 (x51 x105 x55)))) (not (= (x51 x105 (x51 x105 x105)) x105))) (not (= (x51 x105 (x51 x105 x48)) x48)))) (not (= x78 (x51 x105 (x51 x105 x78)))))) (and (and (and (not (= (x51 x48 (x51 x48 x48)) x48)) (and (not (= x105 (x51 x48 (x51 x48 x105)))) (not (= x55 (x51 x48 (x51 x48 x55)))))) (not (= x95 (x51 x48 (x51 x48 x95))))) (not (= x78 (x51 x48 (x51 x48 x78)))))) (and (and (not (= (x51 x95 (x51 x95 x95)) x95)) (and (and (not (= x105 (x51 x95 (x51 x95 x105)))) (not (= (x51 x95 (x51 x95 x55)) x55))) (not (= x48 (x51 x95 (x51 x95 x48)))))) (not (= x78 (x51 x95 (x51 x95 x78)))))) (and (and (and (not (= (x51 x78 (x51 x78 x48)) x48)) (and (not (= (x51 x78 (x51 x78 x55)) x55)) (not (= (x51 x78 (x51 x78 x105)) x105)))) (not (= x95 (x51 x78 (x51 x78 x95))))) (not (= (x51 x78 (x51 x78 x78)) x78)))))
(assert (let ((x1 (x51 x105 x78)) (x46 (x51 x78 x105)) (x72 (x51 x78 x95)) (x109 (x51 x78 x78)) (x19 (x51 x55 x95)) (x26 (x51 x55 x78)) (x32 (x51 x48 x48)) (x94 (x51 x48 x55)) (x45 (x51 x55 x105)) (x144 (x51 x105 x48)) (x41 (x51 x55 x55)) (x70 (x51 x105 x95)) (x124 (x51 x55 x48)) (x14 (x51 x95 x55)) (x17 (x51 x95 x95)) (x35 (x51 x95 x78)) (x97 (x51 x95 x48)) (x103 (x51 x78 x48)) (x101 (x51 x48 x78)) (x34 (x51 x105 x55)) (x108 (x51 x78 x55)) (x140 (x51 x95 x105)) (x37 (x51 x105 x105)) (x74 (x51 x48 x95)) (x56 (x51 x48 x105))) (let ((x134 (= x95 x37)) (x111 (= x78 x74)) (x155 (= x95 x32)) (x68 (= x78 x45)) (x128 (= x45 x55)) (x71 (= x108 x78)) (x89 (= x1 x48)) (x53 (= x55 x144)) (x156 (= x94 x48)) (x116 (= x140 x55)) (x150 (= x1 x95)) (x5 (= x105 x109)) (x84 (= x55 x35)) (x104 (= x101 x48)) (x91 (= x14 x105)) (x59 (= x95 x144)) (x43 (= x95 x74)) (x58 (= x95 x103)) (x64 (= x78 x17)) (x157 (= x48 x35)) (x39 (= x105 x17)) (x146 (= x105 x32)) (x8 (= x78 x70)) (x11 (= x95 x101)) (x20 (= x144 x105)) (x38 (= x74 x105)) (x22 (= x105 x72)) (x31 (= x105 x1)) (x125 (= x70 x48)) (x133 (= x37 x105)) (x159 (= x19 x55)) (x66 (= x101 x55)) (x62 (= x48 x37)) (x77 (= x70 x95)) (x154 (= x140 x95)) (x44 (= x26 x95)) (x107 (= x56 x78)) (x114 (= x55 x97)) (x10 (= x124 x55)) (x52 (= x105 x103)) (x79 (= x74 x55)) (x65 (= x35 x105)) (x9 (= x55 x41)) (x152 (= x46 x105)) (x24 (= x35 x78)) (x29 (= x26 x105)) (x73 (= x55 x109)) (x90 (= x55 x94)) (x122 (= x95 x56)) (x57 (= x46 x78)) (x12 (= x144 x78)) (x119 (= x105 x101)) (x54 (= x48 x124)) (x67 (= x32 x78)) (x130 (= x48 x97)) (x158 (= x17 x48)) (x16 (= x95 x17)) (x113 (= x34 x55)) (x151 (= x95 x19)) (x139 (= x74 x48)) (x4 (= x37 x55)) (x42 (= x103 x55)) (x149 (= x144 x48)) (x83 (= x108 x105)) (x123 (= x56 x55)) (x49 (= x45 x48)) (x80 (= x55 x17)) (x148 (= x140 x48)) (x102 (= x41 x48)) (x145 (= x1 x78)) (x118 (= x124 x78)) (x99 (= x95 x109)) (x92 (= x95 x41)) (x98 (= x19 x48)) (x120 (= x55 x108)) (x110 (= x14 x95)) (x82 (= x48 x46)) (x33 (= x72 x55)) (x7 (= x105 x45)) (x3 (= x55 x70)) (x87 (= x140 x105)) (x96 (= x95 x97)) (x147 (= x48 x34)) (x13 (= x48 x14)) (x121 (= x46 x95)) (x138 (= x97 x78)) (x60 (= x78 x41)) (x28 (= x55 x46)) (x106 (= x78 x14)) (x126 (= x72 x48)) (x6 (= x78 x101)) (x85 (= x95 x108)) (x112 (= x105 x56)) (x75 (= x48 x26)) (x23 (= x94 x105)) (x127 (= x32 x55)) (x63 (= x26 x78)) (x50 (= x124 x105)) (x117 (= x94 x95)) (x88 (= x105 x41)) (x69 (= x1 x55)) (x115 (= x124 x95)) (x47 (= x78 x34)) (x141 (= x55 x26)) (x135 (= x32 x48)) (x27 (= x78 x140)) (x131 (= x105 x97)) (x76 (= x19 x105)) (x142 (= x72 x95)) (x100 (= x78 x109)) (x2 (= x78 x72)) (x30 (= x109 x48)) (x143 (= x95 x34)) (x93 (= x48 x108)) (x86 (= x48 x103)) (x40 (= x95 x35)) (x25 (= x105 x34)) (x81 (= x56 x48)) (x153 (= x37 x78)) (x15 (= x78 x103)) (x136 (= x94 x78)) (x132 (= x55 x14)) (x129 (= x19 x78)) (x18 (= x70 x105)) (x36 (= x45 x95))) (and (and (and (and (and (and (and (or (or (or x117 (or x143 x92)) x110) x85) (or (or (or x115 (or x36 x92)) x151) x44)) (and (and (or (or x98 (or (or x49 x102) x54)) x75) (or (or x13 (or (or x102 x147) x156)) x93)) (and (and (or x29 (or x76 (or (or x88 x7) x50))) (or (or (or (or x88 x25) x23) x91) x83)) (and (or (or x132 (or x90 (or x113 x9))) x120) (or (or x159 (or (or x128 x9) x10)) x141))))) (and (or (or (or x118 (or x60 x68)) x129) x63) (or (or x106 (or (or x47 x60) x136)) x71))) (and (and (or (or x8 (or x12 (or x153 x47))) x145) (or (or (or (or x68 x153) x107) x27) x57)) (and (and (and (or (or x148 (or (or x62 x49) x81)) x82) (or (or (or (or x62 x147) x149) x125) x89)) (and (and (or (or (or x123 (or x128 x4)) x116) x28) (or (or (or x53 (or x113 x4)) x3) x69)) (and (or x31 (or x18 (or x20 (or x133 x25)))) (or x152 (or (or x112 (or x133 x7)) x87))))) (and (or x150 (or x77 (or (or x143 x134) x59))) (or x121 (or (or (or x134 x36) x122) x154)))))) (and (and (or (or (or x67 (or x12 x118)) x138) x15) (or (or x111 (or (or x107 x136) x67)) x6)) (and (and (and (and (or (or x131 (or (or x50 x20) x146)) x52) (or (or (or x146 (or x23 x112)) x38) x119)) (and (or x42 (or (or (or x10 x53) x127) x114)) (or (or (or (or x123 x90) x127) x79) x66))) (and (or x104 (or (or (or x81 x156) x135) x139)) (or (or x130 (or (or x54 x149) x135)) x86))) (and (or (or (or (or x115 x59) x155) x96) x58) (or (or (or x155 (or x117 x122)) x43) x11))))) (and (and (or (or (or x138 (or x27 x106)) x64) x24) (or x2 (or x64 (or (or x129 x8) x111)))) (and (and (and (or x157 (or x158 (or x130 (or x148 x13)))) (or (or (or x139 (or x98 x125)) x158) x126)) (and (and (or x65 (or x39 (or (or x91 x87) x131))) (or (or x39 (or x38 (or x18 x76))) x22)) (and (or x84 (or x80 (or x114 (or x132 x116)))) (or x33 (or (or x79 (or x159 x3)) x80))))) (and (or (or (or x96 (or x154 x110)) x16) x40) (or x142 (or x16 (or x43 (or x151 x77)))))))) (and (and (or x100 (or (or (or x145 x63) x6) x24)) (or x100 (or x2 (or (or x71 x57) x15)))) (and (and (or (or (or (or x85 x121) x58) x142) x99) (or x99 (or x40 (or (or x44 x150) x11)))) (and (and (or x30 (or (or (or x89 x75) x104) x157)) (or (or (or (or x82 x93) x86) x126) x30)) (and (and (or x73 (or (or (or x141 x69) x66) x84)) (or x73 (or (or x42 (or x28 x120)) x33))) (and (or (or (or (or x31 x29) x119) x65) x5) (or (or x22 (or x52 (or x83 x152))) x5))))))))))
(check-sat)
(exit)
